coords = array2d(1..27, 1..2, [751, 424, 201, 144, 116, 645, 229, 636, 630,
    892, 690, 532, 894, 242, 408, 615, 655, 293, 198, 526, 633, 478,
    764, 218, 676, 654, 797, 646, 121, 912, 248, 271, 710, 453, 93,
    283, 229, 620, 724, 141, 515, 368, 268, 719, 850, 179, 386, 980,
    717, 420, 725, 390, 349, 244]);

n = 27;

